&INPUTPH  
  outdir    = './out/'
  prefix    = 'unitcell'
  tr2_ph    = 1d-14
  ldisp     = .true.
  nmix_ph   = 20
  verbosity = 'high'
  nq1 	    = 6
  nq2       = 6
  nq3       = 6
  fildyn    = 'MoSe2.dyn'
/
