&INPUT
  fildyn = 'MoSe2.dyn'
  zasr   = 'crystal'
  flfrc  = 'MoSe2.fc'
/
