&CONTROL
  calculation = 'scf'
  outdir      = './out/'
  prefix      = 'supercell'
  title       = 'SCF Calculation for Pristine MoSe2 3x3 Supercell'
  tstress     = .TRUE.
  tprnfor     = .TRUE.
  pseudo_dir  = './pseudo/'
  verbosity   = 'high'	
/

&SYSTEM
  degauss 		    = 0.01
  ecutrho 		    = 700
  ecutwfc 		    = 70
  ibrav 		    = 0
  nat 			    = 27
  assume_isolated 	    = '2D' 
  ntyp 			    = 2
  occupations 		    = 'smearing'
  smearing 		    = 'gaussian'
/

&ELECTRONS
  conv_thr    =   1.0000000000d-12
  diagonalization = 'cg'
  mixing_beta =   0.4
/

ATOMIC_SPECIES
Mo     95.96  Mo.pbe-spn-kjpaw_psl.1.0.0.UPF
Se     78.96  Se.pbe-n-kjpaw_psl.1.0.0.UPF

ATOMIC_POSITIONS crystal
Mo           0.1111111119       0.2222222239       0.2500000000
Mo           0.1111111120       0.5555555821       0.2500000000
Mo           0.1111111119       0.8888888955       0.2500000000
Mo           0.4444444478       0.2222222239       0.2500000000
Mo           0.4444444477       0.5555555821       0.2500000000
Mo           0.4444444477       0.8888888955       0.2500000000
Mo           0.7777777910       0.2222222239       0.2500000000
Mo           0.7777777910       0.5555555821       0.2500000000
Mo           0.7777777910       0.8888888955       0.2500000000
Se           0.2222222239       0.1111111120       0.3722223342
Se           0.2222222239       0.4444444477       0.3722223342
Se           0.2222222239       0.7777777910       0.3722223342
Se           0.5555555821       0.1111111120       0.3722223342
Se           0.5555555820       0.4444444477       0.3722223342
Se           0.5555555820       0.7777777910       0.3722223342
Se           0.8888888955       0.1111111120       0.3722223342
Se           0.8888888955       0.4444444477       0.3722223342
Se           0.8888888955       0.7777777910       0.3722223342
Se           0.2222222239       0.1111111120       0.1277776807
Se           0.2222222239       0.4444444477       0.1277776807
Se           0.2222222239       0.7777777910       0.1277776807
Se           0.5555555821       0.1111111120       0.1277776807
Se           0.5555555820       0.4444444477       0.1277776807
Se           0.5555555820       0.7777777910       0.1277776807
Se           0.8888888955       0.1111111120       0.1277776807
Se           0.8888888955       0.4444444477       0.1277776807
Se           0.8888888955       0.7777777910       0.1277776807

K_POINTS automatic
10 10 1 0 0 0

CELL_PARAMETERS angstrom
      9.9667806625       0.0000000000       0.0000000000
     -4.9833903313       8.6314852477       0.0000000000
      0.0000000000       0.0000000000      13.5429563522
