&BANDS
 outdir = './out/'
 prefix  = 'unitcell'
 filband = 'unitcell.bands.dat'
/
