&INPUTPH  
  outdir    = './out/'
  prefix    = 'unitcell'
  tr2_ph    = 1d-2
  ldisp     = .TRUE.
  verbosity = 'high'
  nq1 	    = 2
  nq2       = 2
  nq3       = 2
  fildyn    = 'MoSe2.dyn'
/
